5
32
102
40	22
1	4	7	9	22	4	9	4	8	3	
2	5	7	6	12	4	21	3	11	2	9	2	
3	4	4	6	20	3	16	3	6	3	
4	2	14	3	5	3	
5	2	7	8	10	6	
6	5	8	7	6	6	8	4	10	3	5	2	
7	2	6	7	7	5	
8	4	6	5	7	4	6	4	5	4	
9	2	6	10	7	3	
10	5	7	11	7	10	7	3	5	3	8	2	
11	1	5	4	
12	5	6	8	6	8	11	6	12	3	8	3	
13	3	5	10	12	5	9	2	
14	5	7	5	20	4	5	4	5	3	10	2	
15	2	5	6	7	2	
16	3	6	6	12	4	4	3	
17	3	10	5	19	3	9	2	
18	5	7	10	5	6	7	4	7	4	5	3	
19	4	7	5	14	3	8	3	16	2	
20	5	6	11	6	8	12	5	9	4	6	4	
21	5	11	4	10	4	5	4	20	3	10	2	
22	5	5	9	14	4	7	4	10	3	6	3	
23	4	5	8	7	7	7	5	8	4	
24	1	6	4	
25	1	13	3	
26	1	7	2	
27	4	7	5	12	4	7	3	11	2	
28	2	5	10	10	2	
29	1	15	4	
30	2	7	5	6	3	
31	2	7	9	8	6	
32	3	7	4	5	3	5	2	
